--Link1--
%chk=molecule
#HF/6-31G* SCF=tight Test Pop=MK iop(6/33=2) iop(6/42=6) popt

remark line goes here

0   1
    H
    C    1      b2
    H    2      b3    1      a3
    H    2      b4    3      a4    1      t4
    C    2      b5    4      a5    1      t5
    O    5      b6    2      a6    1      t6
    N    5      b7    2      a7    1      t7
    C    7      b8    5      a8    2      t8
    H    8      b9    7      a9    5      t9
    H    8     b10    7     a10    5     t10
    C    8     b11    7     a11    5     t11
    H   11     b12    8     a12    7     t12
    O   11     b13    8     a13    7     t13
    C   11     b14    8     a14    7     t14
    H   14     b15   11     a15    8     t15
    H   14     b16   11     a16    8     t16
    C    7     b17    5     a17    2     t17
    H   17     b18    7     a18    5     t18
    C   17     b19    7     a19    5     t19
    O   19     b20   17     a20    7     t20
    N   19     b21   17     a21    7     t21
    H   21     b22   19     a22   17     t22
    C   21     b23   19     a23   17     t23
    H   23     b24   21     a24   19     t24
    H   23     b25   21     a25   19     t25
    H   23     b26   21     a26   19     t26
    H   13     b27   11     a27    8     t27
Variables:
b2=   1.0824
b3=   1.0846
a3= 107.8631
b4=   1.0801
a4= 108.4108
t4= 118.7241
b5=   1.5132
a5= 107.6825
t5= 123.1830
b6=   1.2021
a6= 121.2017
t6= 139.0763
b7=   1.3617
a7= 117.9764
t7= -41.6527
b8=   1.4610
a8= 119.5216
t8= 170.9358
b9=   1.0861
a9= 111.2999
t9=  85.8464
b10=   1.0804
a10= 110.2470
t10= -33.4723
b11=   1.5247
a11= 103.4089
t11= -154.6784
b12=   1.0856
a12= 112.0656
t12= -153.7400
b13=   1.4030
a13= 111.8214
t13=  81.2864
b14=   1.5218
a14= 102.6781
t14= -32.9528
b15=   1.0845
a15= 109.7217
t15= -78.6928
b16=   1.0804
a16= 112.3703
t16= 160.1595
b17=   1.4605
a17= 127.0925
t17=   3.2884
b18=   1.0816
a18= 111.2062
t18=  60.6058
b19=   1.5267
a19= 115.4592
t19= -60.0944 F
b20=   1.1998
a20= 120.3382
t20= 144.1795
b21=   1.3494
a21= 116.3387
t21= -39.9570 F
b22=   0.9944
a22= 118.2345
t22=  13.6532
b23=   1.4472
a23= 121.4742
t23= 179.6350
b24=   1.0854
a24= 111.9704
t24= -70.6527
b25=   1.0802
a25= 109.8312
t25=  49.6865
b26=   1.0816
a26= 108.7197
t26= 168.8896
b27=   0.9472
a27= 110.1595
t27=  62.3167


