--Link1--
%chk=molecule
#HF/6-31G* SCF=tight Test Pop=MK iop(6/33=2) iop(6/42=6) popt

remark line goes here

0   1
    H
    C    1      b2
    H    2      b3    1      a3
    H    2      b4    3      a4    1      t4
    C    2      b5    4      a5    1      t5
    O    5      b6    2      a6    1      t6
    N    5      b7    2      a7    1      t7
    C    7      b8    5      a8    2      t8
    H    8      b9    7      a9    5      t9
    H    8     b10    7     a10    5     t10
    C    8     b11    7     a11    5     t11
    H   11     b12    8     a12    7     t12
    O   11     b13    8     a13    7     t13
    C   11     b14    8     a14    7     t14
    H   14     b15   11     a15    8     t15
    H   14     b16   11     a16    8     t16
    C    7     b17    5     a17    2     t17
    H   17     b18    7     a18    5     t18
    C   17     b19    7     a19    5     t19
    O   19     b20   17     a20    7     t20
    N   19     b21   17     a21    7     t21
    H   21     b22   19     a22   17     t22
    C   21     b23   19     a23   17     t23
    H   23     b24   21     a24   19     t24
    H   23     b25   21     a25   19     t25
    H   23     b26   21     a26   19     t26
    H   13     b27   11     a27    8     t27
Variables:
b2=   1.0840
b3=   1.0800
a3= 109.4469
b4=   1.0862
a4= 108.3627
t4= 118.1014
b5=   1.5172
a5= 110.8828
t5= 123.4556
b6=   1.1987
a6= 120.2527
t6= -133.1550
b7=   1.3688
a7= 117.7042
t7=  44.4674
b8=   1.4692
a8= 118.2991
t8= 168.4260
b9=   1.0803
a9= 109.7507
t9= 110.5987
b10=   1.0783
a10= 109.0175
t10=  -9.0620
b11=   1.5447
a11= 106.0186
t11= -128.7804
b12=   1.0813
a12= 110.1215
t12= -116.9243
b13=   1.4061
a13= 113.2383
t13= 119.4906
b14=   1.5310
a14= 104.9192
t14=   2.1155
b15=   1.0828
a15= 113.0407
t15= -146.0995
b16=   1.0840
a16= 107.8883
t16=  93.9323
b17=   1.4597
a17= 124.0423
t17=  24.4981
b18=   1.0790
a18= 111.3010
t18=  -7.4046
b19=   1.5299
a19= 109.7228
t19= -60.0944 F
b20=   1.1998
a20= 120.3382
t20= 144.1795
b21=   1.3494
a21= 116.3387
t21= -39.9570 F
b22=   0.9930
a22= 119.2219
t22=  -7.5677
b23=   1.4488
a23= 121.5798
t23= -177.9329
b24=   1.0804
a24= 109.7833
t24= -49.4222
b25=   1.0839
a25= 111.6336
t25=  70.9116
b26=   1.0813
a26= 108.7439
t26= -168.6332
b27=   0.9467
a27= 109.6539
t27=  72.4580


